
Gurobi 9.0.3 (win64, Java) logging started Tue Feb 23 17:51:25 2021


--------------------------------------------
Warning: your license will expire in 9 days
--------------------------------------------

Academic license - for non-commercial use only

Gurobi 9.0.3 (win64, Java) logging started Tue Feb 23 17:51:38 2021


--------------------------------------------
Warning: your license will expire in 9 days
--------------------------------------------

Academic license - for non-commercial use only

Gurobi 9.0.3 (win64, Java) logging started Tue Feb 23 17:52:11 2021


--------------------------------------------
Warning: your license will expire in 9 days
--------------------------------------------

Academic license - for non-commercial use only

Gurobi 9.0.3 (win64, Java) logging started Tue Feb 23 17:52:25 2021


--------------------------------------------
Warning: your license will expire in 9 days
--------------------------------------------

Academic license - for non-commercial use only

Gurobi 9.0.3 (win64, Java) logging started Tue Feb 23 17:52:41 2021


--------------------------------------------
Warning: your license will expire in 9 days
--------------------------------------------

Academic license - for non-commercial use only

Gurobi 9.0.3 (win64, Java) logging started Tue Feb 23 17:53:42 2021


--------------------------------------------
Warning: your license will expire in 9 days
--------------------------------------------

Academic license - for non-commercial use only

Gurobi 9.0.3 (win64, Java) logging started Tue Feb 23 17:55:09 2021


--------------------------------------------
Warning: your license will expire in 9 days
--------------------------------------------

Academic license - for non-commercial use only
